Grasp exp. instance_n_15_m_5_id_1.lp tipoLifted 0 szPool 5 nIteration 100 alpha 0.6 
Academic license - for non-commercial use only
Read LP format model from file ../input/instancesGenerated/instance_n_15_m_5_id_1.lp
Reading time = 0.00 seconds
: 5 rows, 15 columns, 75 nonzeros
Optimize a model with 5 rows, 15 columns and 75 nonzeros
Variable types: 0 continuous, 15 integer (15 binary)
Coefficient statistics:
  Matrix range     [1e+00, 1e+01]
  Objective range  [1e+00, 1e+01]
  Bounds range     [1e+00, 1e+00]
  RHS range        [4e+01, 5e+01]
Found heuristic solution: objective 26.0000000

Explored 0 nodes (0 simplex iterations) in 0.00 seconds
Thread count was 1 (of 8 available processors)

Solution count 1: 26 
No other solutions better than 0

Solution limit reached
Best objective 2.600000000000e+01, best bound -, gap -
C_1:	 7.00 x_1  = 0.000000 + 6.00 x_2  = 1.000000 + 1.00 x_3  = 1.000000 + 2.00 x_4  = 0.500000 + 1.00 x_5  = 0.000000 + 3.00 x_6  = 0.000000 + 4.00 x_7  = 1.000000 + 6.00 x_8  = 0.000000 + 8.00 x_9  = 1.000000 + 10.00 x_10  = 1.000000 + 2.00 x_11  = 1.000000 + 5.00 x_12  = 0.000000 + 10.00 x_13  = 0.000000 + 2.00 x_14  = 0.000000 + 4.00 x_15  = 0.000000 <= 35.00
C_2:	 7.00 x_1  = 0.000000 + 4.00 x_2  = 1.000000 + 10.00 x_3  = 1.000000 + 8.00 x_4  = 0.500000 + 6.00 x_5  = 0.000000 + 3.00 x_6  = 0.000000 + 3.00 x_7  = 1.000000 + 7.00 x_8  = 0.000000 + 6.00 x_9  = 1.000000 + 2.00 x_10  = 1.000000 + 3.00 x_11  = 1.000000 + 3.00 x_12  = 0.000000 + 4.00 x_13  = 0.000000 + 7.00 x_14  = 0.000000 + 6.00 x_15  = 0.000000 <= 39.00
C_3:	 8.00 x_1  = 0.000000 + 3.00 x_2  = 1.000000 + 1.00 x_3  = 1.000000 + 1.00 x_4  = 0.500000 + 6.00 x_5  = 0.000000 + 3.00 x_6  = 0.000000 + 5.00 x_7  = 1.000000 + 10.00 x_8  = 0.000000 + 9.00 x_9  = 1.000000 + 3.00 x_10  = 1.000000 + 9.00 x_11  = 1.000000 + 2.00 x_12  = 0.000000 + 9.00 x_13  = 0.000000 + 10.00 x_14  = 0.000000 + 5.00 x_15  = 0.000000 <= 42.00
C_4:	 4.00 x_1  = 0.000000 + 6.00 x_2  = 1.000000 + 9.00 x_3  = 1.000000 + 4.00 x_4  = 0.500000 + 6.00 x_5  = 0.000000 + 4.00 x_6  = 0.000000 + 8.00 x_7  = 1.000000 + 8.00 x_8  = 0.000000 + 10.00 x_9  = 1.000000 + 3.00 x_10  = 1.000000 + 9.00 x_11  = 1.000000 + 4.00 x_12  = 0.000000 + 6.00 x_13  = 0.000000 + 4.00 x_14  = 0.000000 + 10.00 x_15  = 0.000000 <= 47.00
C_5:	 1.00 x_1  = 0.000000 + 2.00 x_2  = 1.000000 + 5.00 x_3  = 1.000000 + 3.00 x_4  = 0.500000 + 4.00 x_5  = 0.000000 + 10.00 x_6  = 0.000000 + 6.00 x_7  = 1.000000 + 8.00 x_8  = 0.000000 + 9.00 x_9  = 1.000000 + 6.00 x_10  = 1.000000 + 2.00 x_11  = 1.000000 + 9.00 x_12  = 0.000000 + 9.00 x_13  = 0.000000 + 2.00 x_14  = 0.000000 + 9.00 x_15  = 0.000000 <= 42.00
Solution initial: 48.500000 
Number Constraints Used in Cover:5
GRASP Method!
Number cuts repeat: 0
value: 48.500000
Number Constraints Used in Cover:17
GRASP Method!
Number cuts repeat: 0
value: 48.500000
Number Constraints Used in Cover:27
GRASP Method!
Number cuts repeat: 0
value: 48.500000
Number Constraints Used in Cover:34
GRASP Method!
Number cuts repeat: 0
value: 48.500000
Number Constraints Used in Cover:43
GRASP Method!
Number cuts repeat: 0
value: 48.500000
Number Constraints Used in Cover:49
GRASP Method!
Number cuts repeat: 0
value: 48.500000
Number Constraints Used in Cover:58
GRASP Method!
Number cuts repeat: 0
value: 48.500000
Number Constraints Used in Cover:66
GRASP Method!
Number cuts repeat: 0
value: 48.500000
Number Constraints Used in Cover:75
GRASP Method!
Number cuts repeat: 0
value: 48.500000
Number Constraints Used in Cover:81
GRASP Method!
Number cuts repeat: 0
value: 48.500000
Number Constraints Used in Cover:89
GRASP Method!
Number cuts repeat: 0
value: 48.333333
Number Constraints Used in Cover:93
GRASP Method!
Number cuts repeat: 0
value: 48.333333
Number Constraints Used in Cover:105
GRASP Method!
Number cuts repeat: 0
value: 48.333333
Number Constraints Used in Cover:113
GRASP Method!
Number cuts repeat: 0
value: 48.333333
Number Constraints Used in Cover:122
GRASP Method!
Number cuts repeat: 0
value: 48.333333
Number Constraints Used in Cover:126
GRASP Method!
Number cuts repeat: 0
value: 48.333333
Number Constraints Used in Cover:133
GRASP Method!
Number cuts repeat: 0
value: 48.333333
Number Constraints Used in Cover:143
GRASP Method!
Number cuts repeat: 0
value: 48.333333
Number Constraints Used in Cover:147
GRASP Method!
Number cuts repeat: 0
value: 48.333333
Number Constraints Used in Cover:153
GRASP Method!
Number cuts repeat: 0
value: 48.333333
Number Constraints Used in Cover:161
GRASP Method!
Number cuts repeat: 0
value: 48.333333
Number Constraints Used in Cover:164
GRASP Method!
Number cuts repeat: 0
value: 48.333333
Number Constraints Used in Cover:172
GRASP Method!
Number cuts repeat: 0
value: 48.333333
Number Constraints Used in Cover:184
GRASP Method!
Number cuts repeat: 0
value: 48.333333
Number Constraints Used in Cover:201
GRASP Method!
Number cuts repeat: 0
value: 48.333333
Number Constraints Used in Cover:213
GRASP Method!
Number cuts repeat: 0
value: 48.333333
Number Constraints Used in Cover:233
GRASP Method!
Number cuts repeat: 0
value: 48.333333
Number Constraints Used in Cover:245
GRASP Method!
Number cuts repeat: 0
value: 48.333333
Number Constraints Used in Cover:256
GRASP Method!
Number cuts repeat: 0
value: 48.333333
Number Constraints Used in Cover:262
GRASP Method!
Number cuts repeat: 0
value: 48.333333
Number Constraints Used in Cover:273
GRASP Method!
Number cuts repeat: 0
value: 48.333333
Number Constraints Used in Cover:293
GRASP Method!
Number cuts repeat: 0
value: 48.333333
Number Constraints Used in Cover:305
GRASP Method!
Number cuts repeat: 0
value: 48.333333
Number Constraints Used in Cover:320
GRASP Method!
Number cuts repeat: 0
value: 48.333333
Number Constraints Used in Cover:343
GRASP Method!
Number cuts repeat: 0
value: 48.333333
Number Constraints Used in Cover:357
GRASP Method!
Number cuts repeat: 0
value: 48.333333
Number Constraints Used in Cover:377
GRASP Method!
Number cuts repeat: 0
value: 48.333333
Number Constraints Used in Cover:391
GRASP Method!
Number cuts repeat: 0
value: 48.333333
Number Constraints Used in Cover:399
GRASP Method!
Number cuts repeat: 0
value: 48.333333
Number Constraints Used in Cover:416
GRASP Method!
Number cuts repeat: 0
value: 48.333333
Number Constraints Used in Cover:433
GRASP Method!
Number cuts repeat: 0
value: 48.333333
Number Constraints Used in Cover:450
GRASP Method!
Number cuts repeat: 0
value: 48.333333
Number Constraints Used in Cover:457
GRASP Method!
Number cuts repeat: 0
value: 48.333333
Number Constraints Used in Cover:464
GRASP Method!
Number cuts repeat: 0
value: 48.333333
Number Constraints Used in Cover:480
GRASP Method!
Number cuts repeat: 0
value: 48.333333
Number Constraints Used in Cover:492
GRASP Method!
Number cuts repeat: 0
value: 48.333333
Number Constraints Used in Cover:506
GRASP Method!
Number cuts repeat: 0
value: 48.333333
Number Constraints Used in Cover:523
GRASP Method!
Number cuts repeat: 0
value: 48.333333
Number Constraints Used in Cover:540
GRASP Method!
Number cuts repeat: 0
value: 48.333333
Number Constraints Used in Cover:554
GRASP Method!
Number cuts repeat: 0
value: 48.333333
Number Constraints Used in Cover:566
GRASP Method!
Number cuts repeat: 0
value: 48.333333
Number Constraints Used in Cover:578
GRASP Method!
Number cuts repeat: 0
value: 48.333333
Number Constraints Used in Cover:586
GRASP Method!
Number cuts repeat: 0
value: 48.333333
Number Constraints Used in Cover:603
GRASP Method!
Number cuts repeat: 0
value: 48.333333
Number Constraints Used in Cover:612
GRASP Method!
Number cuts repeat: 0
value: 48.333333
Number Constraints Used in Cover:624
GRASP Method!
Number cuts repeat: 0
value: 48.333333
Number Constraints Used in Cover:631
GRASP Method!
Number cuts repeat: 0
value: 48.333333
Number Constraints Used in Cover:639
GRASP Method!
Number cuts repeat: 0
value: 48.333333
Number Constraints Used in Cover:651
GRASP Method!
Number cuts repeat: 0
value: 48.333333
Number Constraints Used in Cover:666
GRASP Method!
Number cuts repeat: 0
value: 48.333333
Number Constraints Used in Cover:685
GRASP Method!
Number cuts repeat: 0
value: 48.333333
Number Constraints Used in Cover:700
GRASP Method!
Number cuts repeat: 0
value: 48.333333
Number Constraints Used in Cover:709
GRASP Method!
Number cuts repeat: 0
value: 48.333333
Number Constraints Used in Cover:724
GRASP Method!
Number cuts repeat: 0
value: 48.333333
Number Constraints Used in Cover:731
GRASP Method!
Number cuts repeat: 0
value: 48.333333
Number Constraints Used in Cover:741
GRASP Method!
Number cuts repeat: 0
value: 48.333333
Number Constraints Used in Cover:755
GRASP Method!
Number cuts repeat: 0
value: 48.333333
Number Constraints Used in Cover:763
GRASP Method!
Number cuts repeat: 0
value: 48.333333
Number Constraints Used in Cover:772
GRASP Method!
Number cuts repeat: 0
value: 48.333333
Number Constraints Used in Cover:782
GRASP Method!
Number cuts repeat: 0
value: 48.333333
Number Constraints Used in Cover:792
GRASP Method!
Number cuts repeat: 0
value: 48.333333
Number Constraints Used in Cover:802
GRASP Method!
Number cuts repeat: 0
value: 48.333333
Number Constraints Used in Cover:813
GRASP Method!
Number cuts repeat: 0
value: 48.333333
Number Constraints Used in Cover:821
GRASP Method!
Number cuts repeat: 0
value: 48.333333
Number Constraints Used in Cover:830
GRASP Method!
Number cuts repeat: 0
value: 48.333333
Number Constraints Used in Cover:838
GRASP Method!
Number cuts repeat: 0
value: 48.333333
Number Constraints Used in Cover:844
GRASP Method!
Number cuts repeat: 0
value: 48.333333
Number Constraints Used in Cover:853
GRASP Method!
Number cuts repeat: 0
value: 48.333333
Number Constraints Used in Cover:858
GRASP Method!
Number cuts repeat: 0
value: 48.333333
Number Constraints Used in Cover:864
GRASP Method!
Number cuts repeat: 0
value: 48.333333
Number Constraints Used in Cover:867
GRASP Method!
Number cuts repeat: 0
value: 48.333333
Number Constraints Used in Cover:874
GRASP Method!
Number cuts repeat: 0
value: 48.333333
Number Constraints Used in Cover:881
GRASP Method!
Number cuts repeat: 0
value: 48.333333
Number Constraints Used in Cover:891
GRASP Method!
Number cuts repeat: 0
value: 48.333333
Number Constraints Used in Cover:897
GRASP Method!
Number cuts repeat: 0
value: 48.333333
Number Constraints Used in Cover:902
GRASP Method!
Number cuts repeat: 0
value: 48.333333
Number Constraints Used in Cover:907
GRASP Method!
Number cuts repeat: 0
value: 48.333333
Number Constraints Used in Cover:913
GRASP Method!
Number cuts repeat: 0
value: 48.333333
Number Cuts Final: 916
